examples/inputs/input28.dzn
n = 66;
l = 450;
s = 450;
r = 450;
f = 100;
forbidden = [| 11, 24
	| 42, 31
	| 61, 59
	| 17, 21
	| 19, 49
	| 64, 59
	| 31, 14
	| 34, 64
	| 52, 59
	| 32, 12
	| 32, 13
	| 54, 44
	| 29, 38
	| 60, 41
	| 58, 4
	| 5, 14
	| 40, 30
	| 39, 51
	| 55, 4
	| 5, 42
	| 63, 41
	| 45, 54
	| 21, 13
	| 5, 25
	| 2, 62
	| 63, 55
	| 34, 57
	| 35, 36
	| 50, 41
	| 1, 27
	| 32, 46
	| 19, 43
	| 4, 66
	| 39, 35
	| 21, 9
	| 59, 27
	| 17, 51
	| 65, 32
	| 37, 31
	| 37, 10
	| 36, 48
	| 61, 11
	| 11, 54
	| 47, 27
	| 42, 45
	| 20, 41
	| 22, 57
	| 66, 27
	| 12, 24
	| 16, 25
	| 50, 20
	| 1, 33
	| 7, 26
	| 34, 6
	| 6, 1
	| 25, 11
	| 6, 13
	| 22, 28
	| 51, 20
	| 63, 45
	| 10, 61
	| 13, 53
	| 37, 57
	| 63, 28
	| 53, 2
	| 32, 56
	| 47, 42
	| 49, 37
	| 45, 61
	| 19, 29
	| 17, 45
	| 7, 37
	| 7, 33
	| 59, 52
	| 44, 17
	| 42, 15
	| 12, 16
	| 9, 37
	| 43, 59
	| 18, 13
	| 51, 52
	| 3, 9
	| 36, 18
	| 44, 40
	| 6, 30
	| 3, 34
	| 3, 50
	| 30, 23
	| 20, 17
	| 9, 64
	| 46, 28
	| 5, 39
	| 45, 35
	| 18, 4
	| 22, 53
	| 51, 3
	| 1, 15
	| 17, 5
	| 60, 2
	| 9, 13
	|];