examples/inputs/input28.lp
#const n = 66.
#const l = 450.
#const s = 450.
#const r = 450.
#const f = 100.
val(11, 24, xxx).
val(42, 31, xxx).
val(61, 59, xxx).
val(17, 21, xxx).
val(19, 49, xxx).
val(64, 59, xxx).
val(31, 14, xxx).
val(34, 64, xxx).
val(52, 59, xxx).
val(32, 12, xxx).
val(32, 13, xxx).
val(54, 44, xxx).
val(29, 38, xxx).
val(60, 41, xxx).
val(58, 4, xxx).
val(5, 14, xxx).
val(40, 30, xxx).
val(39, 51, xxx).
val(55, 4, xxx).
val(5, 42, xxx).
val(63, 41, xxx).
val(45, 54, xxx).
val(21, 13, xxx).
val(5, 25, xxx).
val(2, 62, xxx).
val(63, 55, xxx).
val(34, 57, xxx).
val(35, 36, xxx).
val(50, 41, xxx).
val(1, 27, xxx).
val(32, 46, xxx).
val(19, 43, xxx).
val(4, 66, xxx).
val(39, 35, xxx).
val(21, 9, xxx).
val(59, 27, xxx).
val(17, 51, xxx).
val(65, 32, xxx).
val(37, 31, xxx).
val(37, 10, xxx).
val(36, 48, xxx).
val(61, 11, xxx).
val(11, 54, xxx).
val(47, 27, xxx).
val(42, 45, xxx).
val(20, 41, xxx).
val(22, 57, xxx).
val(66, 27, xxx).
val(12, 24, xxx).
val(16, 25, xxx).
val(50, 20, xxx).
val(1, 33, xxx).
val(7, 26, xxx).
val(34, 6, xxx).
val(6, 1, xxx).
val(25, 11, xxx).
val(6, 13, xxx).
val(22, 28, xxx).
val(51, 20, xxx).
val(63, 45, xxx).
val(10, 61, xxx).
val(13, 53, xxx).
val(37, 57, xxx).
val(63, 28, xxx).
val(53, 2, xxx).
val(32, 56, xxx).
val(47, 42, xxx).
val(49, 37, xxx).
val(45, 61, xxx).
val(19, 29, xxx).
val(17, 45, xxx).
val(7, 37, xxx).
val(7, 33, xxx).
val(59, 52, xxx).
val(44, 17, xxx).
val(42, 15, xxx).
val(12, 16, xxx).
val(9, 37, xxx).
val(43, 59, xxx).
val(18, 13, xxx).
val(51, 52, xxx).
val(3, 9, xxx).
val(36, 18, xxx).
val(44, 40, xxx).
val(6, 30, xxx).
val(3, 34, xxx).
val(3, 50, xxx).
val(30, 23, xxx).
val(20, 17, xxx).
val(9, 64, xxx).
val(46, 28, xxx).
val(5, 39, xxx).
val(45, 35, xxx).
val(18, 4, xxx).
val(22, 53, xxx).
val(51, 3, xxx).
val(1, 15, xxx).
val(17, 5, xxx).
val(60, 2, xxx).
val(9, 13, xxx).